
  12    4
  10   10   10   10

   0   0   0   0   0   5 2 3 4 6 11 
   1  10  10  10  10   3 9 8 5 
   9  10  10  10  10   3 9 8 5 
   8  10  10  10  10   3 10 8 7 
   4  10  10  10  10   1 7 
   4  10  10  10  10   1 7 
   4  10  10  10  10   1 12
   2  10  10  10  10   1 12
   6  10  10  10  10   1 12
   4  10  10  10  10   1 12
   7  10  10  10  10   1 12
   0   0   0   0   0   0 
